BAYES
256
2 2 2 2 2 2 2 2 2 2 2 2 2 2 2 2 2 2 2 2 2 2 2 2 2 2 2 2 2 2 2 2 2 2 2 2 2 2 2 2 2 2 2 2 2 2 2 2 2 2 2 2 2 2 2 2 2 2 2 2 2 2 2 2 2 2 2 2 2 2 2 2 2 2 2 2 2 2 2 2 2 2 2 2 2 2 2 2 2 2 2 2 2 2 2 2 2 2 2 2 2 2 2 2 2 2 2 2 2 2 2 2 2 2 2 2 2 2 2 2 2 2 2 2 2 2 2 2 2 2 2 2 2 2 2 2 2 2 2 2 2 2 2 2 2 2 2 2 2 2 2 2 2 2 2 2 2 2 2 2 2 2 2 2 2 2 2 2 2 2 2 2 2 2 2 2 2 2 2 2 2 2 2 2 2 2 2 2 2 2 2 2 2 2 2 2 2 2 2 2 2 2 2 2 2 2 2 2 2 2 2 2 2 2 2 2 2 2 2 2 2 2 2 2 2 2 2 2 2 2 2 2 2 2 2 2 2 2 2 2 2 2 2 2 2 2 2 2 2 2 2 2 2 2 2 2
256
3 16 1 0
3 17 2 1
3 18 3 2
3 19 4 3
3 20 5 4
3 21 6 5
3 22 7 6
3 23 8 7
3 24 9 8
3 25 10 9
3 26 11 10
3 27 12 11
3 28 13 12
3 29 14 13
3 30 15 14
2 31 15
3 32 17 16
3 33 18 17
3 34 19 18
3 35 20 19
3 36 21 20
3 37 22 21
3 38 23 22
3 39 24 23
3 40 25 24
3 41 26 25
3 42 27 26
3 43 28 27
3 44 29 28
3 45 30 29
3 46 31 30
2 47 31
3 48 33 32
3 49 34 33
3 50 35 34
3 51 36 35
3 52 37 36
3 53 38 37
3 54 39 38
3 55 40 39
3 56 41 40
3 57 42 41
3 58 43 42
3 59 44 43
3 60 45 44
3 61 46 45
3 62 47 46
2 63 47
3 64 49 48
3 65 50 49
3 66 51 50
3 67 52 51
3 68 53 52
3 69 54 53
3 70 55 54
3 71 56 55
3 72 57 56
3 73 58 57
3 74 59 58
3 75 60 59
3 76 61 60
3 77 62 61
3 78 63 62
2 79 63
3 80 65 64
3 81 66 65
3 82 67 66
3 83 68 67
3 84 69 68
3 85 70 69
3 86 71 70
3 87 72 71
3 88 73 72
3 89 74 73
3 90 75 74
3 91 76 75
3 92 77 76
3 93 78 77
3 94 79 78
2 95 79
3 96 81 80
3 97 82 81
3 98 83 82
3 99 84 83
3 100 85 84
3 101 86 85
3 102 87 86
3 103 88 87
3 104 89 88
3 105 90 89
3 106 91 90
3 107 92 91
3 108 93 92
3 109 94 93
3 110 95 94
2 111 95
3 112 97 96
3 113 98 97
3 114 99 98
3 115 100 99
3 116 101 100
3 117 102 101
3 118 103 102
3 119 104 103
3 120 105 104
3 121 106 105
3 122 107 106
3 123 108 107
3 124 109 108
3 125 110 109
3 126 111 110
2 127 111
3 128 113 112
3 129 114 113
3 130 115 114
3 131 116 115
3 132 117 116
3 133 118 117
3 134 119 118
3 135 120 119
3 136 121 120
3 137 122 121
3 138 123 122
3 139 124 123
3 140 125 124
3 141 126 125
3 142 127 126
2 143 127
3 144 129 128
3 145 130 129
3 146 131 130
3 147 132 131
3 148 133 132
3 149 134 133
3 150 135 134
3 151 136 135
3 152 137 136
3 153 138 137
3 154 139 138
3 155 140 139
3 156 141 140
3 157 142 141
3 158 143 142
2 159 143
3 160 145 144
3 161 146 145
3 162 147 146
3 163 148 147
3 164 149 148
3 165 150 149
3 166 151 150
3 167 152 151
3 168 153 152
3 169 154 153
3 170 155 154
3 171 156 155
3 172 157 156
3 173 158 157
3 174 159 158
2 175 159
3 176 161 160
3 177 162 161
3 178 163 162
3 179 164 163
3 180 165 164
3 181 166 165
3 182 167 166
3 183 168 167
3 184 169 168
3 185 170 169
3 186 171 170
3 187 172 171
3 188 173 172
3 189 174 173
3 190 175 174
2 191 175
3 192 177 176
3 193 178 177
3 194 179 178
3 195 180 179
3 196 181 180
3 197 182 181
3 198 183 182
3 199 184 183
3 200 185 184
3 201 186 185
3 202 187 186
3 203 188 187
3 204 189 188
3 205 190 189
3 206 191 190
2 207 191
3 208 193 192
3 209 194 193
3 210 195 194
3 211 196 195
3 212 197 196
3 213 198 197
3 214 199 198
3 215 200 199
3 216 201 200
3 217 202 201
3 218 203 202
3 219 204 203
3 220 205 204
3 221 206 205
3 222 207 206
2 223 207
3 224 209 208
3 225 210 209
3 226 211 210
3 227 212 211
3 228 213 212
3 229 214 213
3 230 215 214
3 231 216 215
3 232 217 216
3 233 218 217
3 234 219 218
3 235 220 219
3 236 221 220
3 237 222 221
3 238 223 222
2 239 223
3 240 225 224
3 241 226 225
3 242 227 226
3 243 228 227
3 244 229 228
3 245 230 229
3 246 231 230
3 247 232 231
3 248 233 232
3 249 234 233
3 250 235 234
3 251 236 235
3 252 237 236
3 253 238 237
3 254 239 238
2 255 239
2 241 240
2 242 241
2 243 242
2 244 243
2 245 244
2 246 245
2 247 246
2 248 247
2 249 248
2 250 249
2 251 250
2 252 251
2 253 252
2 254 253
2 255 254
1  255
8
0 1 1 0 1 0 1 0
8
0 1 1 0 1 0 1 0
8
0 1 0 1 1 0 1 0
8
0.4406794240499653 0.5593205759500347 0.5664631130041364 0.4335368869958636 0.49948496842911894 0.5005150315708811 0.11714341016717159 0.8828565898328284
8
1 0 0 1 1 0 0 1
8
0.5570553381970985 0.44294466180290143 0.5334541151922958 0.46654588480770415 0.19046252287695378 0.8095374771230462 0.2857762720615587 0.7142237279384412
8
1 0 1 0 1 0 0 1
8
0 1 1 0 1 0 0 1
8
1 0 0 1 1 0 1 0
8
1 0 0 1 1 0 1 0
8
0 1 0 1 1 0 1 0
8
0 1 0 1 1 0 0 1
8
1 0 1 0 1 0 1 0
8
0 1 0 1 1 0 0 1
8
0 1 1 0 1 0 1 0
4
0 1 0 1
8
1 0 1 0 0 1 1 0
8
1 0 1 0 1 0 0 1
8
1 0 1 0 1 0 0 1
8
1 0 1 0 0 1 0 1
8
0.6844154573547722 0.3155845426452279 0.5524603776510998 0.44753962234890016 0.47956116920529407 0.5204388307947059 0.5743746227754923 0.42562537722450766
8
0 1 0 1 0 1 1 0
8
0.7633759764947287 0.2366240235052713 0.9946450823521851 0.005354917647814915 0.15831524825100016 0.8416847517489998 0.3535413429591514 0.6464586570408486
8
0 1 1 0 1 0 0 1
8
1 0 0 1 0 1 0 1
8
0 1 0 1 0 1 0 1
8
0.6576269422157509 0.34237305778424904 0.16812920330142442 0.8318707966985756 0.6922461430187644 0.30775385698123553 0.4120587240745902 0.5879412759254098
8
0 1 1 0 0 1 0 1
8
1 0 0 1 1 0 0 1
8
0 1 1 0 1 0 1 0
8
1 0 0 1 1 0 1 0
4
1 0 0 1
8
1 0 1 0 0 1 0 1
8
0 1 1 0 0 1 1 0
8
0 1 0 1 1 0 0 1
8
0 1 1 0 0 1 0 1
8
0 1 0 1 1 0 0 1
8
1 0 0 1 1 0 0 1
8
0 1 1 0 1 0 0 1
8
0 1 1 0 0 1 0 1
8
0 1 0 1 1 0 1 0
8
0 1 0 1 1 0 0 1
8
0 1 0 1 1 0 0 1
8
1 0 1 0 1 0 0 1
8
0 1 0 1 0 1 0 1
8
0.47953869844163977 0.5204613015583602 0.899845914188771 0.100154085811229 0.545889457448773 0.4541105425512269 0.3596247663973141 0.6403752336026859
8
0 1 0 1 1 0 0 1
4
0 1 1 0
8
0 1 1 0 0 1 0 1
8
1 0 0 1 1 0 0 1
8
0 1 0 1 0 1 1 0
8
0 1 1 0 0 1 0 1
8
0 1 1 0 0 1 1 0
8
0.4948927502572265 0.5051072497427734 0.5404000138492357 0.4595999861507643 0.6824825223775611 0.31751747762243904 0.3615263532171887 0.6384736467828114
8
0 1 1 0 0 1 1 0
8
1 0 0 1 1 0 1 0
8
1 0 0 1 0 1 1 0
8
1 0 0 1 1 0 0 1
8
0.41107183563495175 0.5889281643650482 0.48033569446118485 0.5196643055388152 0.37950680310496365 0.6204931968950363 0.6739650722885782 0.3260349277114218
8
0 1 1 0 0 1 0 1
8
0 1 0 1 1 0 0 1
8
1 0 1 0 0 1 0 1
8
0 1 1 0 0 1 0 1
4
1 0 0 1
8
0 1 1 0 0 1 1 0
8
0.8515717685783712 0.14842823142162875 0.5233171789357708 0.4766828210642292 0.082692711071818 0.917307288928182 0.4507384006018072 0.5492615993981927
8
0 1 0 1 1 0 0 1
8
0 1 0 1 0 1 0 1
8
1 0 0 1 1 0 1 0
8
0 1 1 0 0 1 0 1
8
0 1 1 0 1 0 1 0
8
1 0 0 1 1 0 1 0
8
0 1 0 1 0 1 0 1
8
1 0 0 1 0 1 1 0
8
1 0 1 0 0 1 0 1
8
0.17910703247856152 0.8208929675214385 0.7829009693833593 0.21709903061664082 0.49763484856490886 0.5023651514350912 0.6217243970535768 0.37827560294642315
8
1 0 0 1 1 0 1 0
8
1 0 1 0 1 0 0 1
8
1 0 1 0 0 1 0 1
4
1 0 0 1
8
0 1 1 0 0 1 0 1
8
0 1 1 0 0 1 1 0
8
1 0 1 0 1 0 1 0
8
0 1 0 1 0 1 0 1
8
1 0 0 1 1 0 0 1
8
1 0 1 0 1 0 0 1
8
0 1 1 0 0 1 1 0
8
0 1 0 1 1 0 0 1
8
1 0 0 1 1 0 1 0
8
0 1 0 1 1 0 0 1
8
1 0 0 1 0 1 1 0
8
0 1 1 0 1 0 1 0
8
0 1 1 0 0 1 0 1
8
0 1 0 1 1 0 0 1
8
0 1 1 0 1 0 0 1
4
0 1 1 0
8
1 0 1 0 1 0 1 0
8
0 1 0 1 0 1 1 0
8
0 1 1 0 1 0 1 0
8
0 1 0 1 1 0 1 0
8
1 0 0 1 1 0 1 0
8
1 0 0 1 0 1 1 0
8
1 0 1 0 1 0 1 0
8
0 1 1 0 0 1 1 0
8
1 0 0 1 0 1 0 1
8
0 1 1 0 0 1 1 0
8
1 0 0 1 0 1 0 1
8
1 0 1 0 0 1 1 0
8
0 1 0 1 1 0 1 0
8
1 0 0 1 1 0 0 1
8
0 1 1 0 1 0 0 1
4
0 1 0 1
8
0.302023131873012 0.697976868126988 0.9557230343580086 0.044276965641991343 0.3441379295214457 0.6558620704785544 0.4410989874895485 0.5589010125104515
8
0 1 1 0 0 1 0 1
8
1 0 1 0 1 0 0 1
8
0 1 0 1 0 1 1 0
8
1 0 0 1 0 1 0 1
8
0 1 0 1 1 0 1 0
8
1 0 0 1 1 0 0 1
8
0.46999923420077117 0.5300007657992287 0.7184633614238995 0.28153663857610045 0.549733494769398 0.45026650523060197 0.560723256414413 0.43927674358558705
8
1 0 1 0 0 1 1 0
8
1 0 1 0 1 0 0 1
8
1 0 1 0 0 1 0 1
8
1 0 0 1 0 1 0 1
8
0 1 0 1 1 0 0 1
8
0 1 0 1 0 1 1 0
8
0 1 1 0 0 1 0 1
4
0 1 1 0
8
0.47362635066366265 0.5263736493363372 0.5141510523588934 0.48584894764110664 0.6873476552013833 0.3126523447986167 0.5963810583362781 0.40361894166372203
8
0 1 1 0 0 1 1 0
8
1 0 1 0 0 1 0 1
8
1 0 1 0 1 0 1 0
8
1 0 0 1 0 1 1 0
8
0 1 0 1 1 0 1 0
8
0 1 1 0 0 1 1 0
8
0 1 1 0 0 1 0 1
8
0 1 1 0 1 0 0 1
8
0 1 0 1 1 0 0 1
8
1 0 1 0 1 0 0 1
8
0.45772743633702573 0.5422725636629744 0.2504716113447441 0.749528388655256 0.8956720241023726 0.10432797589762746 0.21835759198925014 0.7816424080107498
8
0 1 0 1 0 1 1 0
8
1 0 0 1 1 0 0 1
8
0.6139445154206239 0.386055484579376 0.18850947220252678 0.8114905277974732 0.7579525419808691 0.24204745801913086 0.5090775519250456 0.4909224480749545
4
0 1 1 0
8
1 0 0 1 0 1 0 1
8
0 1 1 0 1 0 1 0
8
0 1 0 1 0 1 0 1
8
0 1 1 0 0 1 1 0
8
0 1 0 1 1 0 0 1
8
1 0 0 1 1 0 0 1
8
1 0 0 1 1 0 0 1
8
1 0 1 0 0 1 1 0
8
1 0 1 0 0 1 0 1
8
0 1 1 0 0 1 1 0
8
1 0 1 0 1 0 0 1
8
0.26124467190458134 0.7387553280954187 0.17345620594360978 0.8265437940563902 0.2823227313217586 0.7176772686782413 0.6747277189840255 0.32527228101597455
8
1 0 1 0 0 1 1 0
8
0 1 0 1 1 0 1 0
8
0 1 1 0 0 1 0 1
4
0.6288295531883079 0.3711704468116921 0.3947594309786669 0.605240569021333
8
0 1 0 1 1 0 0 1
8
0 1 1 0 1 0 0 1
8
0 1 0 1 1 0 1 0
8
0 1 0 1 0 1 1 0
8
0.5937309117581724 0.40626908824182756 0.06378532929356995 0.93621467070643 0.4303255661628274 0.5696744338371725 0.6631958816423499 0.3368041183576502
8
1 0 1 0 1 0 1 0
8
1 0 0 1 1 0 0 1
8
1 0 0 1 1 0 0 1
8
1 0 0 1 1 0 1 0
8
0 1 1 0 0 1 0 1
8
0 1 1 0 0 1 0 1
8
1 0 0 1 1 0 0 1
8
0 1 0 1 0 1 0 1
8
0 1 0 1 0 1 1 0
8
0.503233552060862 0.49676644793913816 0.4171639599290186 0.5828360400709813 0.5887148997798952 0.4112851002201048 0.48453064678141433 0.5154693532185857
4
0 1 1 0
8
1 0 0 1 0 1 0 1
8
1 0 1 0 1 0 1 0
8
0 1 0 1 0 1 1 0
8
0 1 1 0 1 0 1 0
8
1 0 0 1 1 0 1 0
8
0.9656450626141638 0.03435493738583615 0.4098445365593398 0.5901554634406603 0.37878485545160806 0.621215144548392 0.1172421676186041 0.8827578323813959
8
0 1 1 0 1 0 1 0
8
1 0 1 0 1 0 0 1
8
0 1 0 1 1 0 0 1
8
1 0 0 1 1 0 1 0
8
0 1 0 1 1 0 0 1
8
0 1 1 0 0 1 0 1
8
1 0 0 1 0 1 1 0
8
0 1 1 0 1 0 0 1
8
0 1 1 0 1 0 0 1
4
1 0 1 0
8
1 0 1 0 0 1 0 1
8
0 1 1 0 1 0 0 1
8
0.3095350706334563 0.6904649293665437 0.6101360999111428 0.38986390008885724 0.8861447032213821 0.11385529677861796 0.1398283009506956 0.8601716990493045
8
1 0 0 1 0 1 0 1
8
0 1 0 1 0 1 1 0
8
1 0 0 1 1 0 1 0
8
0 1 0 1 0 1 0 1
8
1 0 1 0 1 0 1 0
8
1 0 0 1 0 1 0 1
8
0.5933884051829864 0.4066115948170136 0.31566930051561864 0.6843306994843813 0.9409093445973 0.05909065540269996 0.04954034268380973 0.9504596573161903
8
0 1 0 1 1 0 1 0
8
0 1 0 1 0 1 1 0
8
1 0 1 0 0 1 0 1
8
0.30681225372505 0.69318774627495 0.06693939644700442 0.9330606035529956 0.161903728566174 0.838096271433826 0.3558187482031638 0.6441812517968363
8
1 0 0 1 0 1 0 1
4
1 0 0 1
8
0.6081456202066898 0.39185437979331017 0.7686972773741033 0.23130272262589674 0.20815939702871658 0.7918406029712834 0.43397113915226976 0.5660288608477303
8
0 1 1 0 0 1 1 0
8
1 0 0 1 1 0 1 0
8
0 1 1 0 0 1 0 1
8
0 1 1 0 0 1 0 1
8
1 0 0 1 1 0 0 1
8
0 1 0 1 1 0 1 0
8
1 0 0 1 1 0 0 1
8
1 0 1 0 0 1 1 0
8
1 0 0 1 0 1 1 0
8
0.7743912614940736 0.22560873850592641 0.3413952061381173 0.6586047938618828 0.16059889000104144 0.8394011099989586 0.8709211593464777 0.1290788406535223
8
0 1 0 1 0 1 1 0
8
1 0 0 1 0 1 1 0
8
0 1 1 0 1 0 1 0
8
1 0 0 1 0 1 0 1
4
0 1 1 0
8
0 1 1 0 1 0 1 0
8
1 0 1 0 0 1 0 1
8
0 1 0 1 0 1 1 0
8
0 1 1 0 1 0 0 1
8
1 0 1 0 0 1 1 0
8
1 0 0 1 1 0 0 1
8
1 0 0 1 1 0 1 0
8
1 0 1 0 0 1 1 0
8
1 0 0 1 1 0 0 1
8
1 0 0 1 0 1 0 1
8
0 1 1 0 1 0 0 1
8
0 1 1 0 0 1 1 0
8
1 0 1 0 1 0 1 0
8
0 1 1 0 1 0 0 1
8
0 1 0 1 1 0 0 1
4
0 1 1 0
4
1 0 0 1
4
0 1 0 1
4
1 0 1 0
4
1 0 0 1
4
1 0 0 1
4
0.8559734968400903 0.14402650315990975 0.4435649960876902 0.5564350039123099
4
0 1 1 0
4
0 1 1 0
4
0 1 1 0
4
1 0 1 0
4
1 0 0 1
4
0 1 1 0
4
1 0 1 0
4
0 1 1 0
4
0 1 0 1
2
0 1
